decision_x1=[0,2];
decision_x2=[0,2];
decision_x3=[0,2];
decision_x4=[0,2];
decision_x5=[0,2];
decision_x6=[0,2];
decision_x7=[0,2];
decision_x8=[0,2];
decision_x9=[0,2];
decision_x10=[0,2];
random_y1=[0,2];
random_y2=[0,2];
constraint_x3_x1=[
0,0,3.7|
0,1,4.1|
0,2,4.1|
1,0,9.7|
1,1,8.2|
1,2,9.7|
2,0,2.8|
2,1,1.4|
2,2,5.2|
];
constraint_x4_x1=[
0,0,6.6|
0,1,6.2|
0,2,8.6|
1,0,1.1|
1,1,9.7|
1,2,9.3|
2,0,7.9|
2,1,6.1|
2,2,9.9|
];
constraint_x4_x2=[
0,0,3.2|
0,1,3.3|
0,2,6.6|
1,0,6|
1,1,6.8|
1,2,4.8|
2,0,1.7|
2,1,7.2|
2,2,7.2|
];
constraint_x5_x2=[
0,0,6.9|
0,1,2.6|
0,2,3.4|
1,0,7.4|
1,1,8.1|
1,2,0.49|
2,0,8|
2,1,5.6|
2,2,8.1|
];
constraint_x5_x3=[
0,0,8.1|
0,1,9.2|
0,2,8.8|
1,0,0.61|
1,1,4.3|
1,2,6.3|
2,0,6.8|
2,1,2.1|
2,2,8|
];
constraint_x6_x2=[
0,0,0.62|
0,1,2.4|
0,2,5.4|
1,0,6.2|
1,1,3.4|
1,2,5.6|
2,0,3.1|
2,1,2.2|
2,2,4.1|
];
constraint_x6_x4=[
0,0,9.2|
0,1,4.1|
0,2,4.8|
1,0,3.9|
1,1,5.6|
1,2,2.1|
2,0,2.1|
2,1,0.81|
2,2,1.5|
];
constraint_x7_x2=[
0,0,7.2|
0,1,8.3|
0,2,3.9|
1,0,0.13|
1,1,8.9|
1,2,4.8|
2,0,7.2|
2,1,5.1|
2,2,7.4|
];
constraint_x7_x4=[
0,0,9.3|
0,1,1.8|
0,2,5.1|
1,0,1.1|
1,1,5.9|
1,2,3.5|
2,0,9.7|
2,1,6.5|
2,2,0.9|
];
constraint_x7_x5=[
0,0,7.9|
0,1,7.6|
0,2,5.2|
1,0,9.3|
1,1,2.9|
1,2,5.8|
2,0,1.7|
2,1,2.3|
2,2,1.7|
];
constraint_x7_x6=[
0,0,6.3|
0,1,4.7|
0,2,9.7|
1,0,2.5|
1,1,1|
1,2,7.2|
2,0,3.5|
2,1,0.73|
2,2,7.4|
];
constraint_x8_x2=[
0,0,7.8|
0,1,9.2|
0,2,0.66|
1,0,7.4|
1,1,6.5|
1,2,8.8|
2,0,10|
2,1,9|
2,2,0.002|
];
constraint_x8_x6=[
0,0,3.9|
0,1,2.6|
0,2,3.1|
1,0,3.8|
1,1,3.5|
1,2,4.9|
2,0,4.1|
2,1,9.6|
2,2,1.9|
];
constraint_x8_x7=[
0,0,3.8|
0,1,7.2|
0,2,3.9|
1,0,1.8|
1,1,2.3|
1,2,8.1|
2,0,5|
2,1,8.5|
2,2,2|
];
constraint_x9_x2=[
0,0,0.64|
0,1,7.3|
0,2,6.2|
1,0,8.7|
1,1,7.3|
1,2,1.2|
2,0,5.2|
2,1,7|
2,2,3.8|
];
constraint_x9_x4=[
0,0,0.13|
0,1,1.4|
0,2,3.3|
1,0,4.3|
1,1,5.2|
1,2,4.5|
2,0,4.2|
2,1,3.3|
2,2,3.6|
];
constraint_x9_x8=[
0,0,2|
0,1,1.3|
0,2,0.97|
1,0,7.5|
1,1,8.3|
1,2,3.6|
2,0,0.58|
2,1,2.7|
2,2,5.4|
];
constraint_x10_x2=[
0,0,6|
0,1,5.2|
0,2,4.1|
1,0,5.4|
1,1,2.6|
1,2,6.1|
2,0,4.4|
2,1,4.5|
2,2,6.1|
];
constraint_x10_x4=[
0,0,7.2|
0,1,6|
0,2,0.58|
1,0,4|
1,1,9.1|
1,2,3.2|
2,0,0.54|
2,1,3.2|
2,2,2.2|
];
constraint_x10_x5=[
0,0,1|
0,1,3.2|
0,2,1.1|
1,0,2.2|
1,1,5.9|
1,2,2.4|
2,0,6.5|
2,1,6.5|
2,2,2.4|
];
constraint_x10_x6=[
0,0,2|
0,1,6.9|
0,2,9.5|
1,0,7.4|
1,1,3.5|
1,2,1.2|
2,0,2|
2,1,4.6|
2,2,6.7|
];
constraint_x10_x8=[
0,0,0.46|
0,1,6.4|
0,2,4.7|
1,0,2.3|
1,1,2|
1,2,6.7|
2,0,2.2|
2,1,0.17|
2,2,8.7|
];
constraint_x10_x9=[
0,0,7.2|
0,1,0.85|
0,2,4.8|
1,0,1.1|
1,1,6.8|
1,2,5.2|
2,0,3.7|
2,1,6.8|
2,2,0.56|
];
constraint_x1_y1=[
0,0,9.1|
0,1,9.8|
0,2,6.2|
1,0,9.9|
1,1,9.6|
1,2,0.16|
2,0,1.1|
2,1,7.8|
2,2,2.6|
];
constraint_x2_y2=[
0,0,7.5|
0,1,9.5|
0,2,5|
1,0,7.8|
1,1,3|
1,2,9.8|
2,0,2.9|
2,1,9.5|
2,2,3.2|
];
initial_distribution_y1=[0.011,0.6,0.39];
initial_distribution_y2=[0.35,0.13,0.52];
transition_y1=[
0.43,0.31,0.26|
0.56,0.13,0.3|
0.3,0.34,0.36|
];
transition_y2=[
0.51,0.38,0.11|
0.13,0.35,0.52|
0.36,0.24,0.4|
];
